p cnf 10 70
-1 -4 -3 0
1 5 -7 0
-6 -5 -10 0
-8 -2 7 0
1 8 -5 0
9 -4 -10 0
-6 -8 -9 0
1 -10 -9 0
1 -2 8 0
-9 1 -10 0
7 -5 -3 0
-10 8 -9 0
4 -2 -6 0
-6 2 -10 0
2 1 -6 0
-5 -6 -4 0
-6 -4 8 0
-4 8 -5 0
8 -6 -3 0
1 -7 -5 0
-1 -2 -5 0
8 -4 -10 0
-6 -3 -2 0
-2 -10 8 0
-3 -5 -2 0
1 7 -9 0
-7 -9 -6 0
-3 -7 8 0
-9 8 -10 0
1 3 -9 0
-7 10 4 0
-7 -2 -4 0
-4 -7 -3 0
-9 -2 -3 0
9 -3 1 0
5 8 -4 0
-4 -10 -8 0
7 -5 -2 0
-9 2 6 0
-9 -6 -7 0
-5 -9 -2 0
-8 -5 -2 0
2 -8 -3 0
-6 -10 -3 0
-4 5 -6 0
6 1 -2 0
-6 -3 1 0
-3 -5 -7 0
-6 4 1 0
-6 -3 2 0
1 2 -4 0
5 7 -2 0
-9 -6 -3 0
8 -10 -7 0
2 -10 -4 0
-9 4 -3 0
-9 -4 8 0
1 -6 10 0
-7 -9 -2 0
-10 -4 -6 0
-2 -1 -3 0
-7 -2 1 0
-10 -7 2 0
-2 -7 -6 0
-2 -9 8 0
-3 -7 1 0
8 -7 9 0
-4 -10 1 0
-10 -6 3 0
-4 10 -3 0
%
0